NAME 
ROWS
 N  OBJ
 L  R0      
 L  R1      
 L  R2      
 E  R3      
COLUMNS
    MARKER    'MARKER'                 'INTORG'
    I0(4)     OBJ       -316
    I0(4)     R0        -671
    I0(4)     R1        -451
    I0(4)     R2        -803
    I0(4)     R3        959
    I1(4)     OBJ       -285
    I1(4)     R0        -359
    I1(4)     R1        -812
    I1(4)     R2        -413
    I1(4)     R3        672
    I2(4)     OBJ       -241
    I2(4)     R0        -209
    I2(4)     R1        -457
    I2(4)     R2        -842
    I2(4)     R3        327
    I3(4)     OBJ       -485
    I3(4)     R0        -535
    I3(4)     R1        -37
    I3(4)     R2        -860
    I3(4)     R3        30
    I4(4)     OBJ       -376
    I4(4)     R0        -385
    I4(4)     R1        -443
    I4(4)     R2        -150
    I4(4)     R3        52
    I5(4)     OBJ       -54
    I5(4)     R0        -845
    I5(4)     R1        -71
    I5(4)     R2        -292
    I5(4)     R3        474
    I6(4)     OBJ       -571
    I6(4)     R0        -884
    I6(4)     R1        -448
    I6(4)     R2        -294
    I6(4)     R3        484
    I7(4)     OBJ       -971
    I7(4)     R0        -462
    I7(4)     R1        -551
    I7(4)     R2        -941
    I7(4)     R3        277
    I8(4)     OBJ       -516
    I8(4)     R0        -651
    I8(4)     R1        -942
    I8(4)     R2        -312
    I8(4)     R3        504
    I9(4)     OBJ       -430
    I9(4)     R0        -773
    I9(4)     R1        -713
    I9(4)     R2        -697
    I9(4)     R3        401
    I10(4)    OBJ       -409
    I10(4)    R0        -497
    I10(4)    R1        -172
    I10(4)    R2        -247
    I10(4)    R3        152
    I11(4)    OBJ       -151
    I11(4)    R0        -967
    I11(4)    R1        -613
    I11(4)    R2        -762
    I11(4)    R3        307
    I12(4)    OBJ       -587
    I12(4)    R0        -58
    I12(4)    R1        -71
    I12(4)    R2        -508
    I12(4)    R3        814
    I13(4)    OBJ       -632
    I13(4)    R0        -737
    I13(4)    R1        -380
    I13(4)    R2        -703
    I13(4)    R3        993
    I14(4)    OBJ       -614
    I14(4)    R0        -451
    I14(4)    R1        -147
    I14(4)    R2        -799
    I14(4)    R3        167
    I15(4)    OBJ       -412
    I15(4)    R0        -434
    I15(4)    R1        -455
    I15(4)    R2        -951
    I15(4)    R3        963
    I16(4)    OBJ       -108
    I16(4)    R0        -791
    I16(4)    R1        -225
    I16(4)    R2        -773
    I16(4)    R3        284
    I17(4)    OBJ       -872
    I17(4)    R0        -21
    I17(4)    R1        -31
    I17(4)    R2        -247
    I17(4)    R3        460
    I18(4)    OBJ       -265
    I18(4)    R0        -404
    I18(4)    R1        -917
    I18(4)    R2        -501
    I18(4)    R3        904
    I19(4)    OBJ       -622
    I19(4)    R0        -307
    I19(4)    R1        -875
    I19(4)    R2        -715
    I19(4)    R3        596
    I20(1)    R3        1
    MARKER    'MARKER'                 'INTEND'
RHS
    RHS1      R0        -6991
    RHS1      R1        -5725
    RHS1      R2        -8147
    RHS1      R3        4910
BOUNDS
 UP BND1      I0(4)     1
 UP BND1      I1(4)     1
 UP BND1      I2(4)     1
 UP BND1      I3(4)     1
 UP BND1      I4(4)     1
 UP BND1      I5(4)     1
 UP BND1      I6(4)     1
 UP BND1      I7(4)     1
 UP BND1      I8(4)     1
 UP BND1      I9(4)     1
 UP BND1      I10(4)    1
 UP BND1      I11(4)    1
 UP BND1      I12(4)    1
 UP BND1      I13(4)    1
 UP BND1      I14(4)    1
 UP BND1      I15(4)    1
 UP BND1      I16(4)    1
 UP BND1      I17(4)    1
 UP BND1      I18(4)    1
 UP BND1      I19(4)    1
 LI BND1      I20(1)    0
ENDATA
